NAME : arr.tsp
TIME : 2020-11-15 14:07:14
COMMENT : hello world
DIMENSION : 7
NODE_COORD_SECTION
0 85.0267 82.4597
1 80.7826 40.3226
2 58.4302 22.1774
3 29.8532 15.5242
4 16.2720 41.5323
5 26.4579 69.3548
6 54.4691 78.0242
EOF
